0 0 0 0
0 1 2 0
0 2 0 0
0 3 0 0
0 4 1 3
0 5 0 12
0 6 0 15
0 7 2 5
0 8 0 10
0 9 0 12
0 10 0 5
0 11 0 18
0 12 1 1
0 13 0 17
0 14 0 21
0 15 0 20
0 16 0 8
0 17 0 11
0 18 1 8
0 19 0 15
0 20 1 17
0 21 0 26
0 22 0 22
0 23 0 30
0 24 1 27
0 25 2 31
0 26 1 25
0 27 0 28
0 28 0 25
0 29 0 34
0 30 0 31
0 31 0 36
